&CONTROL
    calculation = 'scf'
    restart_mode = 'from_scratch'
    outdir = './tmp/'
    pseudo_dir = './pseudo/'
    prefix = 'MgFe_cubic'
    verbosity = 'high'
/

&SYSTEM
    ibrav = 0
    nat = 2
    ntyp = 2
    ecutwfc = 60.0
    ecutrho = 600.0
    occupations = 'smearing'
    smearing = 'gaussian'
    degauss = 0.01
/

&ELECTRONS
    conv_thr = 1.0d-8
    mixing_beta = 0.3
/

ATOMIC_SPECIES
Mg  24.305  Mg.pbe-spn-kjpaw_psl.1.0.0.UPF
Fe  55.845  Fe.pbe-spn-kjpaw_psl.1.0.0.UPF

CELL_PARAMETERS angstrom
    4.000000     0.000000     0.000000
    0.000000     4.000000     0.000000
    0.000000     0.000000     4.000000

ATOMIC_POSITIONS angstrom
Mg     0.000000     0.000000     0.000000
Fe     0.500000     0.500000     0.500000

K_POINTS automatic
8 8 8 0 0 0
