Gamma-point phonon calculation for B3BeCH6
&INPUTPH
    tr2_ph = 1.0d-14,
    prefix = 'B3BeCH6',
    outdir = './tmp/',
    alpha_mix(1) = 0.7,
    fildyn = 'B3BeCH6.dyn',
/
0.0 0.0 0.0
