&INPUT
    fildyn = 'B3BeCH6.dyn',
    flfrc = 'B3BeCH6.fc',
/
