&CONTROL
    calculation = 'nscf',
    restart_mode = 'from_scratch',
    prefix = 'B2Be2H5',
    outdir = './tmp/',
    pseudo_dir = '../../../pseudos/',
    verbosity = 'high',
    tprnfor = .true.,
    tstress = .true.,
/

&SYSTEM
    ibrav = 1,
    A = 20.822000,
    nat = 9,
    ntyp = 3,
    ecutwfc = 80,
    ecutrho = 640,
    occupations = 'smearing',
    smearing = 'marzari-vanderbilt',
    degauss = 0.02,
    nbnd = 22,
    input_dft = 'PBE',
/

&ELECTRONS
    diagonalization = 'david',
    mixing_mode = 'plain',
    mixing_beta = 0.7,
    conv_thr = 1.0d-8,
    electron_maxstep = 200,
/

ATOMIC_SPECIES
H      1.008 H.pbe-rrkjus_psl.1.0.0.UPF
B     10.810 B.pbe-n-rrkjus_psl.1.0.0.UPF
Be     9.010 Be.pbe-n-rrkjus_psl.1.0.0.UPF

ATOMIC_POSITIONS angstrom
Be      8.000000     8.000000     8.000000
Be     10.688000     8.000000     8.000000
B      12.822000     8.000000     9.067000
B      11.018000     8.000000     9.969000
H      12.327000     8.000000    10.623500
H      12.578540     8.774160    11.030500
H      11.920000     9.252617    11.437500
H      11.261460     8.774160    11.844500
H      11.513000     8.000000    12.251500

K_POINTS automatic
4 4 4 0 0 0
