&INPUT
    fildyn = 'B2Be2H5.dyn',
    flfrc = 'B2Be2H5.fc',
/
