Gamma-point phonon calculation for BeC4H3
&INPUTPH
    tr2_ph = 1.0d-14,
    prefix = 'BeC4H3',
    outdir = './tmp/',
    alpha_mix(1) = 0.7,
    fildyn = 'BeC4H3.dyn',
/
0.0 0.0 0.0
