Full phonon calculation for BBeC4H4
&INPUTPH
    tr2_ph = 1.0d-14,
    prefix = 'BBeC4H4',
    outdir = './tmp/',
    ldisp = .true.,
    nq1 = 4, nq2 = 4, nq3 = 4,
    alpha_mix(1) = 0.7,
    fildyn = 'BBeC4H4.dyn',
/
