&INPUT
    fildyn = 'BBeC4H4.dyn',
    flfrc = 'BBeC4H4.fc',
/
