&INPUT
    fildyn = 'BBeC3H5.dyn',
    flfrc = 'BBeC3H5.fc',
/
