&CONTROL
    calculation = 'nscf',
    restart_mode = 'from_scratch',
    prefix = 'BBe2C3H6',
    outdir = './tmp/',
    pseudo_dir = '../../../pseudos/',
    verbosity = 'high',
    tprnfor = .true.,
    tstress = .true.,
/

&SYSTEM
    ibrav = 1,
    A = 22.571000,
    nat = 12,
    ntyp = 4,
    ecutwfc = 80,
    ecutrho = 640,
    occupations = 'smearing',
    smearing = 'marzari-vanderbilt',
    degauss = 0.02,
    nbnd = 37,
    input_dft = 'PBE',
/

&ELECTRONS
    diagonalization = 'david',
    mixing_mode = 'plain',
    mixing_beta = 0.7,
    conv_thr = 1.0d-8,
    electron_maxstep = 200,
/

ATOMIC_SPECIES
Be     9.010 Be.pbe-n-rrkjus_psl.1.0.0.UPF
B     10.810 B.pbe-n-rrkjus_psl.1.0.0.UPF
H      1.008 H.pbe-rrkjus_psl.1.0.0.UPF
C     12.010 C.pbe-n-rrkjus_psl.1.0.0.UPF

ATOMIC_POSITIONS angstrom
Be      8.000000     8.000000     8.000000
Be     10.688000     8.000000     8.000000
B      12.822000     8.000000     9.067000
C      14.571000     8.000000     9.941500
C      13.724000     9.467047    10.788500
C      12.877000     8.000000    11.635500
H      14.131000     8.000000    12.262500
H      14.538000     8.704945    12.669500
H      14.131000     9.409889    13.076500
H      13.317000     9.409889    13.483500
H      12.910000     8.704945    13.890500
H      13.317000     8.000000    14.297500

K_POINTS automatic
4 4 4 0 0 0
