&INPUT
    fildyn = 'BBe2C3H6.dyn',
    flfrc = 'BBe2C3H6.fc',
/
