&INPUT
    fildyn = 'B2BeC3H5.dyn',
    flfrc = 'B2BeC3H5.fc',
/
