&CONTROL
    calculation = 'scf',
    restart_mode = 'from_scratch',
    prefix = 'B3BeCH4',
    outdir = './tmp/',
    pseudo_dir = '../../../pseudos/',
    verbosity = 'high',
    tprnfor = .true.,
    tstress = .true.,
/

&SYSTEM
    ibrav = 1,
    A = 19.333000,
    nat = 9,
    ntyp = 4,
    ecutwfc = 80,
    ecutrho = 640,
    occupations = 'smearing',
    smearing = 'marzari-vanderbilt',
    degauss = 0.02,
    input_dft = 'PBE',
/

&ELECTRONS
    diagonalization = 'david',
    mixing_mode = 'plain',
    mixing_beta = 0.7,
    conv_thr = 1.0d-8,
    electron_maxstep = 200,
/

ATOMIC_SPECIES
H      1.008 H.pbe-rrkjus_psl.1.0.0.UPF
B     10.810 B.pbe-n-rrkjus_psl.1.0.0.UPF
Be     9.010 Be.pbe-n-rrkjus_psl.1.0.0.UPF
C     12.010 C.pbe-n-rrkjus_psl.1.0.0.UPF

ATOMIC_POSITIONS angstrom
Be      8.000000     8.000000     8.000000
B      10.134000     8.000000     9.067000
B       9.232000     9.562310     9.969000
B       8.330000     8.000000    10.871000
C      10.079000     8.000000    11.745500
H      11.333000     8.000000    12.372500
H      11.333000     8.814000    12.779500
H      10.519000     8.814000    13.186500
H      10.519000     8.000000    13.593500

K_POINTS gamma
