Gamma-point phonon calculation for BBeC4H6
&INPUTPH
    tr2_ph = 1.0d-14,
    prefix = 'BBeC4H6',
    outdir = './tmp/',
    alpha_mix(1) = 0.7,
    fildyn = 'BBeC4H6.dyn',
/
0.0 0.0 0.0
