Gamma-point phonon calculation for BeC2H3
&INPUTPH
    tr2_ph = 1.0d-14,
    prefix = 'BeC2H3',
    outdir = './tmp/',
    alpha_mix(1) = 0.7,
    fildyn = 'BeC2H3.dyn',
/
0.0 0.0 0.0
