&INPUT
    fildyn = 'B3BeC2H6.dyn',
    flfrc = 'B3BeC2H6.fc',
/
