&CONTROL
    calculation = 'scf',
    restart_mode = 'from_scratch',
    prefix = 'B3BeC2H6',
    outdir = './tmp/',
    pseudo_dir = '../../../pseudos/',
    verbosity = 'high',
    tprnfor = .true.,
    tstress = .true.,
/

&SYSTEM
    ibrav = 1,
    A = 18.134000,
    nat = 12,
    ntyp = 4,
    ecutwfc = 80,
    ecutrho = 640,
    occupations = 'smearing',
    smearing = 'marzari-vanderbilt',
    degauss = 0.02,
    input_dft = 'PBE',
/

&ELECTRONS
    diagonalization = 'david',
    mixing_mode = 'plain',
    mixing_beta = 0.7,
    conv_thr = 1.0d-8,
    electron_maxstep = 200,
/

ATOMIC_SPECIES
B     10.810 B.pbe-n-rrkjus_psl.1.0.0.UPF
H      1.008 H.pbe-rrkjus_psl.1.0.0.UPF
C     12.010 C.pbe-n-rrkjus_psl.1.0.0.UPF
Be     9.010 Be.pbe-n-rrkjus_psl.1.0.0.UPF

ATOMIC_POSITIONS angstrom
Be      8.000000     8.000000     8.000000
B      10.134000     8.000000     9.067000
B       9.232000     9.562310     9.969000
B       8.330000     8.000000    10.871000
C      10.079000     8.000000    11.745500
C       8.385000     8.000000    12.592500
H       9.639000     8.000000    13.219500
H      10.046000     8.704945    13.626500
H       9.639000     9.409889    14.033500
H       8.825000     9.409889    14.440500
H       8.418000     8.704945    14.847500
H       8.825000     8.000000    15.254500

K_POINTS gamma
