Full phonon calculation for Be2C4H5
&INPUTPH
    tr2_ph = 1.0d-14,
    prefix = 'Be2C4H5',
    outdir = './tmp/',
    ldisp = .true.,
    nq1 = 4, nq2 = 4, nq3 = 4,
    alpha_mix(1) = 0.7,
    fildyn = 'Be2C4H5.dyn',
/
