&CONTROL
    calculation = 'scf',
    restart_mode = 'from_scratch',
    prefix = 'Be2C4H5',
    outdir = './tmp/',
    pseudo_dir = '../../../pseudos/',
    verbosity = 'high',
    tprnfor = .true.,
    tstress = .true.,
/

&SYSTEM
    ibrav = 1,
    A = 20.767000,
    nat = 11,
    ntyp = 3,
    ecutwfc = 80,
    ecutrho = 640,
    occupations = 'smearing',
    smearing = 'marzari-vanderbilt',
    degauss = 0.02,
    input_dft = 'PBE',
/

&ELECTRONS
    diagonalization = 'david',
    mixing_mode = 'plain',
    mixing_beta = 0.7,
    conv_thr = 1.0d-8,
    electron_maxstep = 200,
/

ATOMIC_SPECIES
Be     9.010 Be.pbe-n-rrkjus_psl.1.0.0.UPF
H      1.008 H.pbe-rrkjus_psl.1.0.0.UPF
C     12.010 C.pbe-n-rrkjus_psl.1.0.0.UPF

ATOMIC_POSITIONS angstrom
Be      8.000000     8.000000     8.000000
Be     10.688000     8.000000     8.000000
C      12.767000     8.000000     9.039500
C      12.767000     9.694000     9.886500
C      11.073000     9.694000    10.733500
C      11.073000     8.000000    11.580500
H      12.327000     8.000000    12.207500
H      12.578540     8.774160    12.614500
H      11.920000     9.252617    13.021500
H      11.261460     8.774160    13.428500
H      11.513000     8.000000    13.835500

K_POINTS gamma
