Gamma-point phonon calculation for B3BeH5
&INPUTPH
    tr2_ph = 1.0d-14,
    prefix = 'B3BeH5',
    outdir = './tmp/',
    alpha_mix(1) = 0.7,
    fildyn = 'B3BeH5.dyn',
/
0.0 0.0 0.0
