Gamma-point phonon calculation for B3BeC3H5
&INPUTPH
    tr2_ph = 1.0d-14,
    prefix = 'B3BeC3H5',
    outdir = './tmp/',
    alpha_mix(1) = 0.7,
    fildyn = 'B3BeC3H5.dyn',
/
0.0 0.0 0.0
