&CONTROL
    calculation = 'scf',
    restart_mode = 'from_scratch',
    prefix = 'BBe2C4H5',
    outdir = './tmp/',
    pseudo_dir = '../../../pseudos/',
    verbosity = 'high',
    tprnfor = .true.,
    tstress = .true.,
/

&SYSTEM
    ibrav = 1,
    A = 22.571000,
    nat = 12,
    ntyp = 4,
    ecutwfc = 80,
    ecutrho = 640,
    occupations = 'smearing',
    smearing = 'marzari-vanderbilt',
    degauss = 0.02,
    input_dft = 'PBE',
/

&ELECTRONS
    diagonalization = 'david',
    mixing_mode = 'plain',
    mixing_beta = 0.7,
    conv_thr = 1.0d-8,
    electron_maxstep = 200,
/

ATOMIC_SPECIES
Be     9.010 Be.pbe-n-rrkjus_psl.1.0.0.UPF
B     10.810 B.pbe-n-rrkjus_psl.1.0.0.UPF
H      1.008 H.pbe-rrkjus_psl.1.0.0.UPF
C     12.010 C.pbe-n-rrkjus_psl.1.0.0.UPF

ATOMIC_POSITIONS angstrom
Be      8.000000     8.000000     8.000000
Be     10.688000     8.000000     8.000000
B      12.822000     8.000000     9.067000
C      14.571000     8.000000     9.941500
C      14.571000     9.694000    10.788500
C      12.877000     9.694000    11.635500
C      12.877000     8.000000    12.482500
H      14.131000     8.000000    13.109500
H      14.382540     8.774160    13.516500
H      13.724000     9.252617    13.923500
H      13.065460     8.774160    14.330500
H      13.317000     8.000000    14.737500

K_POINTS gamma
