&CONTROL
    calculation = 'nscf',
    restart_mode = 'from_scratch',
    prefix = 'BeC4H6',
    outdir = './tmp/',
    pseudo_dir = '../../../pseudos/',
    verbosity = 'high',
    tprnfor = .true.,
    tstress = .true.,
/

&SYSTEM
    ibrav = 1,
    A = 18.079000,
    nat = 11,
    ntyp = 3,
    ecutwfc = 80,
    ecutrho = 640,
    occupations = 'smearing',
    smearing = 'marzari-vanderbilt',
    degauss = 0.02,
    nbnd = 36,
    input_dft = 'PBE',
/

&ELECTRONS
    diagonalization = 'david',
    mixing_mode = 'plain',
    mixing_beta = 0.7,
    conv_thr = 1.0d-8,
    electron_maxstep = 200,
/

ATOMIC_SPECIES
Be     9.010 Be.pbe-n-rrkjus_psl.1.0.0.UPF
H      1.008 H.pbe-rrkjus_psl.1.0.0.UPF
C     12.010 C.pbe-n-rrkjus_psl.1.0.0.UPF

ATOMIC_POSITIONS angstrom
Be      8.000000     8.000000     8.000000
C      10.079000     8.000000     9.039500
C      10.079000     9.694000     9.886500
C       8.385000     9.694000    10.733500
C       8.385000     8.000000    11.580500
H       9.639000     8.000000    12.207500
H      10.046000     8.704945    12.614500
H       9.639000     9.409889    13.021500
H       8.825000     9.409889    13.428500
H       8.418000     8.704945    13.835500
H       8.825000     8.000000    14.242500

K_POINTS automatic
4 4 4 0 0 0
