&INPUT
    fildyn = 'Be2C3H4.dyn',
    flfrc = 'Be2C3H4.fc',
/
