Gamma-point phonon calculation for B3BeH3
&INPUTPH
    tr2_ph = 1.0d-14,
    prefix = 'B3BeH3',
    outdir = './tmp/',
    alpha_mix(1) = 0.7,
    fildyn = 'B3BeH3.dyn',
/
0.0 0.0 0.0
