Gamma-point phonon calculation for BBe2C2H4
&INPUTPH
    tr2_ph = 1.0d-14,
    prefix = 'BBe2C2H4',
    outdir = './tmp/',
    alpha_mix(1) = 0.7,
    fildyn = 'BBe2C2H4.dyn',
/
0.0 0.0 0.0
