Gamma-point phonon calculation for Be2C4H6
&INPUTPH
    tr2_ph = 1.0d-14,
    prefix = 'Be2C4H6',
    outdir = './tmp/',
    alpha_mix(1) = 0.7,
    fildyn = 'Be2C4H6.dyn',
/
0.0 0.0 0.0
