&INPUT
    fildyn = 'BeC4H5.dyn',
    flfrc = 'BeC4H5.fc',
/
