&INPUT
    fildyn = 'BeC4H4.dyn',
    flfrc = 'BeC4H4.fc',
/
