&INPUT
    fildyn = 'BeC3H3.dyn',
    flfrc = 'BeC3H3.fc',
/
