Gamma-point phonon calculation for Be3C3H6
&INPUTPH
    tr2_ph = 1.0d-14,
    prefix = 'Be3C3H6',
    outdir = './tmp/',
    alpha_mix(1) = 0.7,
    fildyn = 'Be3C3H6.dyn',
/
0.0 0.0 0.0
