&INPUT
    fildyn = 'Be3C3H6.dyn',
    flfrc = 'Be3C3H6.fc',
/
