&INPUT
    fildyn = 'B2BeC3H4.dyn',
    flfrc = 'B2BeC3H4.fc',
/
