&INPUT
    fildyn = 'BeC3H5.dyn',
    flfrc = 'BeC3H5.fc',
/
