&INPUT
    fildyn = 'BBeC3H3.dyn',
    flfrc = 'BBeC3H3.fc',
/
