&CONTROL
    calculation = 'nscf',
    restart_mode = 'from_scratch',
    prefix = 'B2BeC4H5',
    outdir = './tmp/',
    pseudo_dir = '../../../pseudos/',
    verbosity = 'high',
    tprnfor = .true.,
    tstress = .true.,
/

&SYSTEM
    ibrav = 1,
    A = 18.134000,
    nat = 12,
    ntyp = 4,
    ecutwfc = 80,
    ecutrho = 640,
    occupations = 'smearing',
    smearing = 'marzari-vanderbilt',
    degauss = 0.02,
    nbnd = 43,
    input_dft = 'PBE',
/

&ELECTRONS
    diagonalization = 'david',
    mixing_mode = 'plain',
    mixing_beta = 0.7,
    conv_thr = 1.0d-8,
    electron_maxstep = 200,
/

ATOMIC_SPECIES
H      1.008 H.pbe-rrkjus_psl.1.0.0.UPF
B     10.810 B.pbe-n-rrkjus_psl.1.0.0.UPF
Be     9.010 Be.pbe-n-rrkjus_psl.1.0.0.UPF
C     12.010 C.pbe-n-rrkjus_psl.1.0.0.UPF

ATOMIC_POSITIONS angstrom
Be      8.000000     8.000000     8.000000
B      10.134000     8.000000     9.067000
B       8.330000     8.000000     9.969000
C      10.079000     8.000000    10.843500
C      10.079000     9.694000    11.690500
C       8.385000     9.694000    12.537500
C       8.385000     8.000000    13.384500
H       9.639000     8.000000    14.011500
H       9.890540     8.774160    14.418500
H       9.232000     9.252617    14.825500
H       8.573460     8.774160    15.232500
H       8.825000     8.000000    15.639500

K_POINTS automatic
4 4 4 0 0 0
