&INPUT
    fildyn = 'B2BeC4H5.dyn',
    flfrc = 'B2BeC4H5.fc',
/
