&INPUT
    fildyn = 'BBeC2H5.dyn',
    flfrc = 'BBeC2H5.fc',
/
