&INPUT
    fildyn = 'xtbopt.dyn',
    flfrc = 'xtbopt.fc',
/
