&INPUTPH
  prefix = 'YH9',
  outdir = '../tmp/',
  fildyn = 'YH9.dyn',
  tr2_ph = 1.0d-14,
  ldisp  = .true.,
  nq1 = 4, nq2 = 4, nq3 = 4,
  electron_phonon = 'interpolated',
  el_ph_sigma = 0.02,
  el_ph_nsigma = 10,
 / 