Full phonon calculation for BBeH3
&INPUTPH
    tr2_ph = 1.0d-14,
    prefix = 'BBeH3',
    outdir = './tmp/',
    ldisp = .true.,
    nq1 = 4, nq2 = 4, nq3 = 4,
    alpha_mix(1) = 0.7,
    fildyn = 'BBeH3.dyn',
/
