&INPUT
    fildyn = 'BBeH3.dyn',
    flfrc = 'BBeH3.fc',
/
