&CONTROL
    calculation = 'scf',
    restart_mode = 'from_scratch',
    prefix = 'Be2C3H6',
    outdir = './tmp/',
    pseudo_dir = '../../../pseudos/',
    verbosity = 'high',
    tprnfor = .true.,
    tstress = .true.,
/

&SYSTEM
    ibrav = 1,
    A = 20.767000,
    nat = 11,
    ntyp = 3,
    ecutwfc = 80,
    ecutrho = 640,
    occupations = 'smearing',
    smearing = 'marzari-vanderbilt',
    degauss = 0.02,
    input_dft = 'PBE',
/

&ELECTRONS
    diagonalization = 'david',
    mixing_mode = 'plain',
    mixing_beta = 0.7,
    conv_thr = 1.0d-8,
    electron_maxstep = 200,
/

ATOMIC_SPECIES
H      1.008 H.pbe-rrkjus_psl.1.0.0.UPF
Be     9.010 Be.pbe-n-rrkjus_psl.1.0.0.UPF
C     12.010 C.pbe-n-rrkjus_psl.1.0.0.UPF

ATOMIC_POSITIONS angstrom
Be      8.000000     8.000000     8.000000
Be     10.688000     8.000000     8.000000
C      12.767000     8.000000     9.039500
C      11.920000     9.467047     9.886500
C      11.073000     8.000000    10.733500
H      12.327000     8.000000    11.360500
H      12.734000     8.704945    11.767500
H      12.327000     9.409889    12.174500
H      11.513000     9.409889    12.581500
H      11.106000     8.704945    12.988500
H      11.513000     8.000000    13.395500

K_POINTS gamma
