Full phonon calculation for BeC2H6
&INPUTPH
    tr2_ph = 1.0d-14,
    prefix = 'BeC2H6',
    outdir = './tmp/',
    ldisp = .true.,
    nq1 = 4, nq2 = 4, nq3 = 4,
    alpha_mix(1) = 0.7,
    fildyn = 'BeC2H6.dyn',
/
