&INPUT
    fildyn = 'B3BeC3H4.dyn',
    flfrc = 'B3BeC3H4.fc',
/
