Gamma-point phonon calculation for BBeCH6
&INPUTPH
    tr2_ph = 1.0d-14,
    prefix = 'BBeCH6',
    outdir = './tmp/',
    alpha_mix(1) = 0.7,
    fildyn = 'BBeCH6.dyn',
/
0.0 0.0 0.0
