&CONTROL
    calculation = 'nscf',
    restart_mode = 'from_scratch',
    prefix = 'BBeCH6',
    outdir = './tmp/',
    pseudo_dir = '../../../pseudos/',
    verbosity = 'high',
    tprnfor = .true.,
    tstress = .true.,
/

&SYSTEM
    ibrav = 1,
    A = 21.544000,
    nat = 9,
    ntyp = 4,
    ecutwfc = 80,
    ecutrho = 640,
    occupations = 'smearing',
    smearing = 'marzari-vanderbilt',
    degauss = 0.02,
    nbnd = 22,
    input_dft = 'PBE',
/

&ELECTRONS
    diagonalization = 'david',
    mixing_mode = 'plain',
    mixing_beta = 0.7,
    conv_thr = 1.0d-8,
    electron_maxstep = 200,
/

ATOMIC_SPECIES
B     10.810 B.pbe-n-rrkjus_psl.1.0.0.UPF
H      1.008 H.pbe-rrkjus_psl.1.0.0.UPF
C     12.010 C.pbe-n-rrkjus_psl.1.0.0.UPF
Be     9.010 Be.pbe-n-rrkjus_psl.1.0.0.UPF

ATOMIC_POSITIONS angstrom
Be      8.000000     8.000000     8.000000
B      10.134000     8.000000     9.067000
C      11.883000     8.000000     9.941500
H      13.137000     8.000000    10.568500
H      13.544000     8.704945    10.975500
H      13.137000     9.409889    11.382500
H      12.323000     9.409889    11.789500
H      11.916000     8.704945    12.196500
H      12.323000     8.000000    12.603500

K_POINTS automatic
4 4 4 0 0 0
