&INPUT
    fildyn = 'BBeCH6.dyn',
    flfrc = 'BBeCH6.fc',
/
