Gamma-point phonon calculation for B2BeH6
&INPUTPH
    tr2_ph = 1.0d-14,
    prefix = 'B2BeH6',
    outdir = './tmp/',
    alpha_mix(1) = 0.7,
    fildyn = 'B2BeH6.dyn',
/
0.0 0.0 0.0
