&INPUT
    fildyn = 'B2BeH6.dyn',
    flfrc = 'B2BeH6.fc',
/
